c Command line: hgen8 175 40
p cnf 175 272
32 129 18 85 0
60 80 1 22 0
117 46 156 107 0
109 110 48 131 0
132 84 69 126 0
97 33 23 17 0
35 137 104 142 0
64 98 135 57 0
13 70 14 134 0
36 26 79 153 0
168 91 146 61 0
122 152 139 120 0
83 9 42 94 0
50 44 167 4 0
128 119 73 55 0
81 41 113 115 0
116 103 90 130 0
76 174 19 25 0
141 88 87 160 0
143 67 112 105 0
155 27 29 39 0
102 93 162 15 0
118 52 75 101 0
56 157 45 43 0
34 20 86 123 0
24 10 6 111 0
12 114 136 63 0
164 149 173 40 0
163 170 28 108 0
169 147 8 77 0
171 140 158 82 0
16 100 138 89 0
95 68 166 47 0
150 72 175 3 0
151 133 51 59 0
58 7 5 159 0
-1 -3 0
-1 -4 0
-1 -5 0
-3 -4 0
-3 -5 0
-4 -5 0
-6 -7 0
-6 -8 0
-6 -9 0
-6 -10 0
-7 -8 0
-7 -9 0
-7 -10 0
-8 -9 0
-8 -10 0
-9 -10 0
-12 -13 0
-12 -14 0
-12 -15 0
-13 -14 0
-13 -15 0
-14 -15 0
-16 -17 0
-16 -18 0
-16 -19 0
-16 -20 0
-17 -18 0
-17 -19 0
-17 -20 0
-18 -19 0
-18 -20 0
-19 -20 0
-22 -23 0
-22 -24 0
-22 -25 0
-23 -24 0
-23 -25 0
-24 -25 0
-26 -27 0
-26 -28 0
-26 -29 0
-27 -28 0
-27 -29 0
-28 -29 0
-32 -33 0
-32 -34 0
-32 -35 0
-33 -34 0
-33 -35 0
-34 -35 0
-36 -39 0
-36 -40 0
-39 -40 0
-41 -42 0
-41 -43 0
-41 -44 0
-41 -45 0
-42 -43 0
-42 -44 0
-42 -45 0
-43 -44 0
-43 -45 0
-44 -45 0
-46 -47 0
-46 -48 0
-46 -50 0
-47 -48 0
-47 -50 0
-48 -50 0
-51 -52 0
-51 -55 0
-52 -55 0
-56 -57 0
-56 -58 0
-56 -59 0
-56 -60 0
-57 -58 0
-57 -59 0
-57 -60 0
-58 -59 0
-58 -60 0
-59 -60 0
-61 -63 0
-61 -64 0
-63 -64 0
-67 -68 0
-67 -69 0
-67 -70 0
-68 -69 0
-68 -70 0
-69 -70 0
-72 -73 0
-72 -75 0
-73 -75 0
-76 -77 0
-76 -79 0
-76 -80 0
-77 -79 0
-77 -80 0
-79 -80 0
-81 -82 0
-81 -83 0
-81 -84 0
-81 -85 0
-82 -83 0
-82 -84 0
-82 -85 0
-83 -84 0
-83 -85 0
-84 -85 0
-86 -87 0
-86 -88 0
-86 -89 0
-86 -90 0
-87 -88 0
-87 -89 0
-87 -90 0
-88 -89 0
-88 -90 0
-89 -90 0
-91 -93 0
-91 -94 0
-91 -95 0
-93 -94 0
-93 -95 0
-94 -95 0
-97 -98 0
-97 -100 0
-98 -100 0
-101 -102 0
-101 -103 0
-101 -104 0
-101 -105 0
-102 -103 0
-102 -104 0
-102 -105 0
-103 -104 0
-103 -105 0
-104 -105 0
-107 -108 0
-107 -109 0
-107 -110 0
-108 -109 0
-108 -110 0
-109 -110 0
-111 -112 0
-111 -113 0
-111 -114 0
-111 -115 0
-112 -113 0
-112 -114 0
-112 -115 0
-113 -114 0
-113 -115 0
-114 -115 0
-116 -117 0
-116 -118 0
-116 -119 0
-116 -120 0
-117 -118 0
-117 -119 0
-117 -120 0
-118 -119 0
-118 -120 0
-119 -120 0
-122 -123 0
-126 -128 0
-126 -129 0
-126 -130 0
-128 -129 0
-128 -130 0
-129 -130 0
-131 -132 0
-131 -133 0
-131 -134 0
-131 -135 0
-132 -133 0
-132 -134 0
-132 -135 0
-133 -134 0
-133 -135 0
-134 -135 0
-136 -137 0
-136 -138 0
-136 -139 0
-136 -140 0
-137 -138 0
-137 -139 0
-137 -140 0
-138 -139 0
-138 -140 0
-139 -140 0
-141 -142 0
-141 -143 0
-142 -143 0
-146 -147 0
-146 -149 0
-146 -150 0
-147 -149 0
-147 -150 0
-149 -150 0
-151 -152 0
-151 -153 0
-151 -155 0
-152 -153 0
-152 -155 0
-153 -155 0
-156 -157 0
-156 -158 0
-156 -159 0
-156 -160 0
-157 -158 0
-157 -159 0
-157 -160 0
-158 -159 0
-158 -160 0
-159 -160 0
-162 -163 0
-162 -164 0
-163 -164 0
-166 -167 0
-166 -168 0
-166 -169 0
-166 -170 0
-167 -168 0
-167 -169 0
-167 -170 0
-168 -169 0
-168 -170 0
-169 -170 0
-171 -173 0
-171 -174 0
-171 -175 0
-173 -174 0
-173 -175 0
-174 -175 0
